sat
(
  (define-fun VM14Type () Int
    433)
  (define-fun C4_VM4 () Int
    0)
  (define-fun VM19Type () Int
    433)
  (define-fun C3_VM2 () Int
    0)
  (define-fun C1_VM12 () Int
    1)
  (define-fun C3_VM3 () Int
    0)
  (define-fun C2_VM12 () Int
    0)
  (define-fun C3_VM14 () Int
    0)
  (define-fun ProcProv3 () Int
    4)
  (define-fun C5_VM10 () Int
    0)
  (define-fun PriceProv11 () Int
    116)
  (define-fun C2_VM10 () Int
    1)
  (define-fun C1_VM2 () Int
    0)
  (define-fun C2_VM5 () Int
    1)
  (define-fun C1_VM18 () Int
    1)
  (define-fun StorageProv10 () Int
    2000)
  (define-fun C2_VM11 () Int
    0)
  (define-fun C2_VM16 () Int
    0)
  (define-fun C4_VM12 () Int
    0)
  (define-fun StorageProv18 () Int
    2000)
  (define-fun ProcProv15 () Int
    2)
  (define-fun ProcProv16 () Int
    2)
  (define-fun MemProv16 () Int
    3750)
  (define-fun VM13Type () Int
    433)
  (define-fun C1_VM11 () Int
    1)
  (define-fun MemProv18 () Int
    3750)
  (define-fun MemProv12 () Int
    3750)
  (define-fun StorageProv8 () Int
    2000)
  (define-fun C1_VM14 () Int
    0)
  (define-fun C1_VM15 () Int
    1)
  (define-fun PriceProv18 () Int
    116)
  (define-fun MemProv19 () Int
    3750)
  (define-fun C2_VM8 () Int
    0)
  (define-fun VM8Type () Int
    341)
  (define-fun C4_VM9 () Int
    1)
  (define-fun C5_VM7 () Int
    0)
  (define-fun C4_VM18 () Int
    0)
  (define-fun C4_VM11 () Int
    0)
  (define-fun C3_VM10 () Int
    0)
  (define-fun ProcProv8 () Int
    4)
  (define-fun MemProv5 () Int
    3750)
  (define-fun C5_VM16 () Int
    0)
  (define-fun ProcProv1 () Int
    4)
  (define-fun MemProv4 () Int
    3750)
  (define-fun StorageProv1 () Int
    2000)
  (define-fun C5_VM17 () Int
    0)
  (define-fun MemProv2 () Int
    7500)
  (define-fun VM5Type () Int
    433)
  (define-fun StorageProv11 () Int
    2000)
  (define-fun VM4Type () Int
    433)
  (define-fun MemProv3 () Int
    7500)
  (define-fun StorageProv13 () Int
    2000)
  (define-fun ProcProv14 () Int
    2)
  (define-fun C5_VM14 () Int
    0)
  (define-fun C4_VM16 () Int
    0)
  (define-fun C5_VM18 () Int
    0)
  (define-fun C2_VM7 () Int
    1)
  (define-fun MemProv10 () Int
    3750)
  (define-fun C4_VM2 () Int
    0)
  (define-fun PriceProv8 () Int
    210)
  (define-fun C2_VM2 () Int
    0)
  (define-fun C1_VM6 () Int
    1)
  (define-fun C3_VM4 () Int
    0)
  (define-fun C3_VM15 () Int
    0)
  (define-fun MemProv6 () Int
    3750)
  (define-fun ProcProv7 () Int
    2)
  (define-fun C2_VM9 () Int
    0)
  (define-fun C3_VM1 () Int
    0)
  (define-fun StorageProv12 () Int
    2000)
  (define-fun C4_VM6 () Int
    0)
  (define-fun VM7Type () Int
    433)
  (define-fun C2_VM4 () Int
    0)
  (define-fun MemProv17 () Int
    3750)
  (define-fun PriceProv3 () Int
    210)
  (define-fun C2_VM15 () Int
    0)
  (define-fun C3_VM19 () Int
    0)
  (define-fun C4_VM7 () Int
    0)
  (define-fun C1_VM1 () Int
    0)
  (define-fun C1_VM10 () Int
    0)
  (define-fun StorageProv17 () Int
    2000)
  (define-fun C4_VM14 () Int
    0)
  (define-fun ProcProv9 () Int
    4)
  (define-fun PriceProv14 () Int
    116)
  (define-fun PriceProv1 () Int
    210)
  (define-fun VM12Type () Int
    433)
  (define-fun C1_VM4 () Int
    1)
  (define-fun ProcProv12 () Int
    2)
  (define-fun C3_VM9 () Int
    0)
  (define-fun C4_VM1 () Int
    0)
  (define-fun MemProv15 () Int
    3750)
  (define-fun C5_VM1 () Int
    1)
  (define-fun PriceProv9 () Int
    210)
  (define-fun VM3Type () Int
    341)
  (define-fun MemProv1 () Int
    7500)
  (define-fun C5_VM4 () Int
    0)
  (define-fun C4_VM17 () Int
    0)
  (define-fun C3_VM6 () Int
    0)
  (define-fun C5_VM12 () Int
    0)
  (define-fun C3_VM16 () Int
    0)
  (define-fun ProcProv4 () Int
    2)
  (define-fun C2_VM1 () Int
    0)
  (define-fun C5_VM5 () Int
    0)
  (define-fun VM2Type () Int
    341)
  (define-fun C3_VM13 () Int
    0)
  (define-fun StorageProv14 () Int
    2000)
  (define-fun ProcProv10 () Int
    2)
  (define-fun PriceProv13 () Int
    116)
  (define-fun ProcProv6 () Int
    2)
  (define-fun C1_VM19 () Int
    0)
  (define-fun VM17Type () Int
    433)
  (define-fun C5_VM2 () Int
    1)
  (define-fun PriceProv6 () Int
    116)
  (define-fun C2_VM6 () Int
    0)
  (define-fun C5_VM11 () Int
    0)
  (define-fun StorageProv16 () Int
    2000)
  (define-fun PriceProv16 () Int
    116)
  (define-fun StorageProv7 () Int
    2000)
  (define-fun VM16Type () Int
    433)
  (define-fun C1_VM9 () Int
    0)
  (define-fun MemProv13 () Int
    3750)
  (define-fun MemProv8 () Int
    7500)
  (define-fun C4_VM3 () Int
    1)
  (define-fun C4_VM13 () Int
    0)
  (define-fun C3_VM7 () Int
    0)
  (define-fun VM1Type () Int
    341)
  (define-fun C2_VM19 () Int
    1)
  (define-fun MemProv14 () Int
    3750)
  (define-fun C1_VM17 () Int
    1)
  (define-fun PriceProv7 () Int
    116)
  (define-fun PriceProv15 () Int
    116)
  (define-fun C3_VM8 () Int
    0)
  (define-fun StorageProv3 () Int
    2000)
  (define-fun StorageProv4 () Int
    2000)
  (define-fun C1_VM16 () Int
    1)
  (define-fun C4_VM19 () Int
    0)
  (define-fun ProcProv19 () Int
    2)
  (define-fun ProcProv2 () Int
    4)
  (define-fun ProcProv18 () Int
    2)
  (define-fun ProcProv17 () Int
    2)
  (define-fun VM9Type () Int
    341)
  (define-fun C5_VM9 () Int
    0)
  (define-fun C2_VM18 () Int
    0)
  (define-fun ProcProv11 () Int
    2)
  (define-fun C1_VM8 () Int
    0)
  (define-fun PriceProv12 () Int
    116)
  (define-fun VM11Type () Int
    433)
  (define-fun C2_VM13 () Int
    1)
  (define-fun PriceProv5 () Int
    116)
  (define-fun C1_VM3 () Int
    0)
  (define-fun C5_VM15 () Int
    0)
  (define-fun C2_VM3 () Int
    0)
  (define-fun StorageProv6 () Int
    2000)
  (define-fun MemProv11 () Int
    3750)
  (define-fun C1_VM13 () Int
    0)
  (define-fun C3_VM11 () Int
    0)
  (define-fun C5_VM6 () Int
    0)
  (define-fun C5_VM13 () Int
    0)
  (define-fun VM15Type () Int
    433)
  (define-fun StorageProv2 () Int
    2000)
  (define-fun ProcProv5 () Int
    2)
  (define-fun C1_VM5 () Int
    0)
  (define-fun C3_VM17 () Int
    0)
  (define-fun VM6Type () Int
    433)
  (define-fun StorageProv9 () Int
    2000)
  (define-fun PriceProv4 () Int
    116)
  (define-fun PriceProv19 () Int
    116)
  (define-fun C4_VM5 () Int
    0)
  (define-fun C3_VM18 () Int
    0)
  (define-fun C5_VM19 () Int
    0)
  (define-fun MemProv9 () Int
    7500)
  (define-fun C5_VM3 () Int
    0)
  (define-fun C4_VM10 () Int
    0)
  (define-fun C3_VM12 () Int
    0)
  (define-fun StorageProv19 () Int
    2000)
  (define-fun PriceProv17 () Int
    116)
  (define-fun ProcProv13 () Int
    2)
  (define-fun C1_VM7 () Int
    0)
  (define-fun VM10Type () Int
    433)
  (define-fun StorageProv5 () Int
    2000)
  (define-fun C3_VM5 () Int
    0)
  (define-fun PriceProv2 () Int
    210)
  (define-fun C4_VM8 () Int
    1)
  (define-fun C2_VM14 () Int
    1)
  (define-fun VM18Type () Int
    433)
  (define-fun C4_VM15 () Int
    0)
  (define-fun C2_VM17 () Int
    0)
  (define-fun MemProv7 () Int
    3750)
  (define-fun StorageProv15 () Int
    2000)
  (define-fun C5_VM8 () Int
    0)
  (define-fun PriceProv10 () Int
    116)
)
(objectives
 ( 72)
 ((+ 0
   PriceProv1
   PriceProv2
   PriceProv3
   PriceProv4
   PriceProv5
   PriceProv6
   PriceProv7
   PriceProv8
   PriceProv9
   PriceProv10
   PriceProv11
   PriceProv12
   PriceProv13
   PriceProv14
   PriceProv15
   PriceProv16
   PriceProv17
   PriceProv18
   PriceProv19) 2674)
)
(:added-eqs                   280244215
 :arith-eq-adapter            5025958
 :arith-bound-propagations-lp 101387
 :arith-conflicts             180
 :arith-diseq                 95485990
 :arith-fixed-eqs             4160163
 :arith-lower                 171433787
 :arith-make-feasible         4652574
 :arith-max-columns           723
 :arith-max-rows              59
 :arith-upper                 26384609
 :binary-propagations         329679561
 :bv-bit2core                 3573291
 :bv-dynamic-diseqs           97659410
 :bv-dynamic-eqs              6
 :bv->core-eq                 7120
 :conflicts                   2437516
 :decisions                   7880842
 :del-clause                  107513762
 :final-checks                120
 :max-memory                  942.74
 :maxsat-cores                21
 :memory                      230.48
 :minimized-lits              24620986
 :mk-bool-var                 10180727
 :mk-clause                   107522336
 :mk-clause-binary            46954
 :num-allocs                  160097120065042.00
 :num-checks                  253
 :pb-conflicts                1225678
 :pb-predicates               7
 :pb-propagations             8142710
 :pb-resolves                 453742
 :propagations                712745879
 :restarts                    12530
 :rlimit-count                3873837874
 :time                        571.87
 :total-time                  571.85)
